31
3 47 46 17 
3 54 22 56 
2 31 34 
1 55 
3 45 18 21 
3 25 32 5 
1 53 
2 37 16 
3 23 39 24 
2 40 7 
2 49 1 
2 48 10 
1 36 
2 20 57 
1 28 
1 52 
1 9 
1 2 
3 29 12 38 
1 3 
3 30 35 41 
1 19 
2 43 4 
2 13 50 
3 6 60 51 
3 8 14 11 
3 58 44 27 
2 33 15 
1 42 
1 26 
1 59 
